
******************************************************************************
This program contains Ipopt, a library for large-scale nonlinear optimization.
 Ipopt is released as open source code under the Eclipse Public License (EPL).
         For more information visit http://projects.coin-or.org/Ipopt

This version of Ipopt was compiled from source code available at
    https://github.com/IDAES/Ipopt as part of the Institute for the Design of
    Advanced Energy Systems Process Systems Engineering Framework (IDAES PSE
    Framework) Copyright (c) 2018-2019. See https://github.com/IDAES/idaes-pse.

This version of Ipopt was compiled using HSL, a collection of Fortran codes
    for large-scale scientific computation.  All technical papers, sales and
    publicity material resulting from use of the HSL codes within IPOPT must
    contain the following acknowledgement:
        HSL, a collection of Fortran codes for large-scale scientific
        computation. See http://www.hsl.rl.ac.uk.
******************************************************************************

This is Ipopt version 3.13.2, running with linear solver ma27.

Number of nonzeros in equality constraint Jacobian...:      808
Number of nonzeros in inequality constraint Jacobian.:        0
Number of nonzeros in Lagrangian Hessian.............:      702

Total number of variables............................:      351
                     variables with only lower bounds:      108
                variables with lower and upper bounds:      189
                     variables with only upper bounds:        0
Total number of equality constraints.................:      350
Total number of inequality constraints...............:        0
        inequality constraints with only lower bounds:        0
   inequality constraints with lower and upper bounds:        0
        inequality constraints with only upper bounds:        0

iter    objective    inf_pr   inf_du lg(mu)  ||d||  lg(rg) alpha_du alpha_pr  ls
   0  0.0000000e+00 3.53e-01 1.78e-15  -1.0 0.00e+00    -  0.00e+00 0.00e+00   0
   1  7.6963176e-03 3.14e-01 1.22e+04  -1.0 9.10e+04    -  8.69e-01 6.65e-02h  1
   2  1.8071172e+00 4.76e-02 1.28e+04  -1.0 8.88e+04    -  2.56e-01 9.90e-01h  1
   3  1.8069426e+00 4.55e-02 1.32e+04  -1.0 2.17e+03    -  9.86e-01 4.40e-02h  1
   4  1.7548887e+00 4.57e-04 1.32e+03  -1.0 3.08e+03    -  9.86e-01 9.90e-01h  1
   5  1.7540754e+00 5.30e-06 2.11e+02  -1.0 4.33e+01    -  9.88e-01 9.90e-01h  1
   6  1.7537653e+00 5.46e-06 9.13e+06  -1.0 9.23e+02    -  8.30e-01 1.55e-02f  7
   7  1.7247208e+00 1.58e-03 2.01e+07  -1.0 8.72e+04    -  9.90e-01 1.55e-02f  7
   8  1.7037660e+00 8.59e-04 1.43e+06  -1.0 9.99e+02    -  8.49e-01 9.90e-01h  1
   9  1.6964300e+00 9.19e-04 1.15e+09  -1.0 4.52e+04    -  1.00e+00 7.73e-03h  8
iter    objective    inf_pr   inf_du lg(mu)  ||d||  lg(rg) alpha_du alpha_pr  ls
  10  1.5600257e+00 6.87e-04 4.86e+08  -1.0 7.47e+03    -  5.63e-01 9.90e-01H  1
  11  1.5588973e+00 6.87e-04 1.16e+11  -1.0 6.13e+04    -  1.00e+00 9.67e-04h 11
  12  1.5560266e+00 6.84e-04 1.70e+11  -1.0 1.95e+04    -  4.83e-01 7.73e-03h  8
  13  1.5548702e+00 6.84e-04 2.88e+11  -1.0 6.30e+04    -  1.00e+00 9.67e-04h 11
  14  1.5493012e+00 6.83e-04 3.39e+11  -1.0 1.90e+04    -  4.88e-01 1.55e-02h  7
  15  1.5481459e+00 6.82e-04 4.58e+11  -1.0 6.33e+04    -  1.00e+00 9.67e-04h 11
  16  1.5423661e+00 6.81e-04 5.07e+11  -1.0 1.98e+04    -  4.86e-01 1.55e-02h  7
  17  1.5412095e+00 6.81e-04 6.28e+11  -1.0 6.37e+04    -  1.00e+00 9.67e-04h 11
  18  1.5352397e+00 6.80e-04 6.75e+11  -1.0 2.06e+04    -  4.84e-01 1.55e-02h  7
  19  1.5340822e+00 6.80e-04 7.98e+11  -1.0 6.41e+04    -  1.00e+00 9.67e-04h 11
iter    objective    inf_pr   inf_du lg(mu)  ||d||  lg(rg) alpha_du alpha_pr  ls
  20  1.5279184e+00 6.79e-04 8.43e+11  -1.0 2.14e+04    -  4.82e-01 1.55e-02h  7
  21  8.9361778e-01 1.36e-02 9.69e+09  -1.0 6.45e+04    -  1.00e+00 9.90e-01w  1
  22  8.8802809e-01 1.69e-03 1.26e+11  -1.0 4.81e+03    -  1.00e+00 9.90e-01w  1
In iteration 22, 27 Slacks too small, adjusting variable bounds
  23  8.9233657e-01 4.90e-04 1.26e+13  -1.0 7.34e+03    -  1.00e+00 9.90e-01w  1
  24  8.9277865e-01 5.97e-06 8.59e-02  -1.0 3.11e+02    -  1.00e+00 1.00e+00h  1
  25  8.8783023e-01 2.16e-04 4.80e+11  -8.6 5.90e+03    -  9.65e-01 1.00e+00f  1
  26  8.8779759e-01 6.25e-07 7.11e+06  -8.6 3.63e+02    -  1.00e+00 1.00e+00h  1
  27  8.8779752e-01 4.96e-11 2.19e-08  -8.6 1.91e+00    -  1.00e+00 1.00e+00h  1

Number of Iterations....: 27

                                   (scaled)                 (unscaled)
Objective...............:   8.8779752423628500e-01    8.8779752423628500e-01
Dual infeasibility......:   2.1886080503463745e-08    2.1886080503463745e-08
Constraint violation....:   4.9597312368199198e-11    4.9597312368199198e-11
Complementarity.........:   3.5254206525060105e-09    3.5254206525060105e-09
Overall NLP error.......:   9.9606021133750843e-11    2.1886080503463745e-08


Number of objective function evaluations             = 184
Number of objective gradient evaluations             = 28
Number of equality constraint evaluations            = 184
Number of inequality constraint evaluations          = 0
Number of equality constraint Jacobian evaluations   = 28
Number of inequality constraint Jacobian evaluations = 0
Number of Lagrangian Hessian evaluations             = 27
Total CPU secs in IPOPT (w/o function evaluations)   =      0.056
Total CPU secs in NLP function evaluations           =      1.245

EXIT: Optimal Solution Found.
